11
1 0 49
2 0 26
2 1 2
3 0 6
3 1 50
3 2 11
4 0 22
4 1 41
4 2 30
4 3 34
5 0 22
5 1 17
5 2 5
5 3 47
5 4 20
6 0 21
6 1 50
6 2 23
6 3 43
6 4 41
6 5 17
7 0 43
7 1 55
7 2 37
7 3 19
7 4 10
7 5 49
7 6 18
8 0 10
8 1 41
8 2 17
8 3 28
8 4 10
8 5 41
8 6 37
8 7 41
9 0 40
9 1 50
9 2 44
9 3 30
9 4 50
9 5 26
9 6 5
9 7 3
9 8 52
10 0 49
10 1 18
10 2 28
10 3 24
10 4 16
10 5 4
10 6 27
10 7 40
10 8 53
10 9 11
